letting maxWeight=88
letting values=[25, 21, 26, 13, 14, 14, 5, 12, 21, 3, 39, 38, 6, 5, 32, 25, 16, 9, 35, 32, 36, 24, 42, 19, 9, 27, 38, 29, 43, 43, 7, 13, 37, 33, 2, 10, 31, 10, 12, 23, 30, 39, 11, 25, 33, 40, 41, 21, 40, 6, 9, 26, 3, 17, 43, 2, 22, 10, 30, 43, 23, 6, 32, 43]
letting weights=[8, 4, 4, 18, 5, 16, 13, 15, 18, 12, 22, 21, 2, 2, 21, 10, 9, 22, 12, 17, 20, 19, 7, 5, 5, 4, 23, 11, 23, 7, 12, 1, 21, 13, 2, 23, 2, 23, 19, 6, 4, 9, 22, 15, 1, 10, 9, 7, 12, 11, 15, 3, 17, 14, 18, 15, 9, 8, 7, 21, 6, 21, 18, 7]
